25 2
25 200
10
7
13
19
26
3
5
9
16
16
12
19
23
20
8
19
2
12
17
9
11
18
29
3
6
35 35 0 230 0 0
41 49 73 204 10 2
35 17 18 147 10 1
55 45 76 165 10 3
55 20 73 195 10 1
15 30 20 167 10 2
25 30 49 158 10 3
20 50 36 135 10 2
10 43 50 149 10 3
55 60 47 156 10 2
30 60 85 172 10 2
20 65 33 152 10 3
50 35 15 133 10 2
30 25 79 208 10 2
15 10 32 187 10 3
30 5 30 152 10 2
10 20 29 139 10 1
5 30 60 189 10 2
20 40 47 136 10 1
15 60 32 146 10 3
45 65 79 182 10 3
45 20 18 136 10 2
45 10 50 153 10 1
55 5 36 155 10 1
65 35 58 190 10 1
65 20 56 186 10 2
29 45 0 230 5 4
57 46 0 230 5 4
1 0
0 0
0 1
0 0
1 0
1 0
1 0
1 0
0 1
1 0
1 0
0 1
1 0
1 0
1 0
0 0
1 0
0 0
1 0
0 1
0 1
0 0
0 0
0 0
0 1
